1
150
71
20 1
21 4
22 2
24 2
25 4
26 5
27 2
28 5
29 4
30 3
31 3
32 2
33 5
34 2
36 1
38 1
39 3
41 1
42 2
43 5
44 1
45 2
46 5
47 2
48 2
51 7
52 5
53 1
54 2
55 1
56 2
57 1
58 2
59 1
60 1
61 2
62 4
63 1
64 2
65 4
66 1
67 5
68 2
70 2
71 2
73 5
74 2
75 3
78 1
79 6
80 4
81 2
82 5
83 3
84 3
85 3
86 4
87 2
88 5
89 5
90 1
91 5
92 1
93 3
94 2
95 2
96 3
97 2
98 4
99 2
100 5
